Route #1: 1 6 34 40 42 36 39 4 66 43 14 1 
Route #2: 1 20 29 32 65 18 17 50 11 1 
Route #3: 1 35 23 24 38 27 16 63 46 64 1 
Route #4: 1 19 59 10 41 26 47 55 1 
Route #5: 1 49 51 31 5 15 25 1 
Route #6: 1 1 8 37 2 33 45 1 
Route #7: 1 53 44 60 3 57 9 1 
Route #8: 1 7 12 22 54 58 13 28 1 
Route #9: 1 52 56 21 48 61 62 1 
Route #10: 1 30 1 

Cost 1979.29
Time 0.6643


 * Another infos *

 Iterations: 67 Time: 0.6643 sec - 0.0111 min - 0.0002 horas
0.0000 h 0.0111 min
Problem dimension: 67
